nodesNumber = 10;
minColorsNumber = 3;
maxClique = [1, 2, 3];

edges = array2d(1..10, 1..10, [
  false, true, false, false, true, false, false, false, false, false, true, false, true, false, false, false, true, true, true, false, false, true, false, false, false, true, false, false, false, false, false, false, false, false, false, false, false, false, false, false, true, false, false, false, false, false, false, false, true, false, false, false, true, false, false, false, false, false, false, false, false, true, false, false, false, false, false, false, false, true, false, true, false, false, false, false, false, false, false, false, false, true, false, false, true, false, false, false, false, true, false, false, false, false, false, false, true, false, true, false
]);
